data/solutions/recovery/degenerate/intermediate/binding/degenerate_intermediate_instance38/25.sol
Elapsed time: 0.16
Upper bound: 300102.0
Planning weighted value: 14158214723.0
C[0]=300102.0
C[1]=299858.0
C[2]=296932.0
C[3]=294869.0
C[4]=294774.0
C[5]=294513.0
C[6]=291219.0
C[7]=288728.0
C[8]=287963.0
C[9]=287425.0
C[10]=286245.0
C[11]=281707.0
C[12]=280083.0
C[13]=0.0
C[14]=0.0
C[15]=0.0
y[0]=7
y[1]=10
y[2]=7
y[3]=9
y[4]=12
y[5]=4
y[6]=8
y[7]=7
y[8]=9
y[9]=9
y[10]=5
y[11]=6
y[12]=6
y[13]=12
y[14]=7
y[15]=12
y[16]=9
y[17]=2
y[18]=1
y[19]=4
y[20]=11
y[21]=11
y[22]=5
y[23]=1
y[24]=2
y[25]=10
y[26]=0
y[27]=3
y[28]=5
y[29]=7
y[30]=8
y[31]=4
y[32]=1
y[33]=2
y[34]=2
y[35]=9
y[36]=11
y[37]=0
y[38]=12
y[39]=1
y[40]=12
y[41]=5
y[42]=6
y[43]=5
y[44]=6
y[45]=10
y[46]=11
y[47]=10
y[48]=1
y[49]=0
y[50]=2
y[51]=8
y[52]=2
y[53]=2
y[54]=6
y[55]=3
y[56]=11
y[57]=8
y[58]=3
y[59]=0
y[60]=12
y[61]=4
y[62]=10
y[63]=3
y[64]=4
y[65]=0
